\ Model CVRP
\ LP format - for model browsing. Use MPS format to capture full model detail.
Minimize
  53407.96503999105 x[0,1] + 33701.43174834025 x[0,2]
   + 31189.34460094212 x[0,3] + 108560.9825934048 x[0,4]
   + 86122.68630593206 x[0,5] + 86940.76721694999 x[0,6]
   + 30782.49471759983 x[0,7] + 7003.559544565849 x[0,8]
   + 79829.94341542452 x[0,9] + 53407.96503999105 x[1,0]
   + 54501.55404448691 x[1,2] + 36241.76706322331 x[1,3]
   + 134017.2751747304 x[1,4] + 110231.6914280279 x[1,5]
   + 109218.2403420358 x[1,6] + 57874.37372839647 x[1,7]
   + 46701.68388471497 x[1,8] + 104275.5092901661 x[1,9]
   + 33701.43174834025 x[2,0] + 54501.55404448691 x[2,1]
   + 18322.40414786452 x[2,3] + 82399.24272102762 x[2,4]
   + 58636.32675164661 x[2,5] + 58479.2418896415 x[2,6]
   + 63042.73346391511 x[2,7] + 30566.06071020912 x[2,8]
   + 52333.09962481724 x[2,9] + 31189.34460094212 x[3,0]
   + 36241.76706322331 x[3,1] + 18322.40414786452 x[3,2]
   + 99794.41419817235 x[3,4] + 75918.23531824087 x[3,5]
   + 75396.71414249453 x[3,6] + 54512.07651077845 x[3,7]
   + 25045.84628464162 x[3,8] + 69724.46308203375 x[3,9]
   + 108560.9825934048 x[4,0] + 134017.2751747304 x[4,1]
   + 82399.24272102762 x[4,2] + 99794.41419817235 x[4,3]
   + 23883.21789554056 x[4,5] + 24863.47777083076 x[4,6]
   + 139062.3335760295 x[4,7] + 108910.7231721063 x[4,8]
   + 30090.87203180838 x[4,9] + 86122.68630593206 x[5,0]
   + 110231.6914280279 x[5,1] + 58636.32675164661 x[5,2]
   + 75918.23531824087 x[5,3] + 23883.21789554056 x[5,4]
   + 3710.985347012456 x[5,6] + 116851.9024825548 x[5,7]
   + 85939.24747102745 x[5,8] + 6364.246875081939 x[5,9]
   + 86940.76721694999 x[6,0] + 109218.2403420358 x[6,1]
   + 58479.2418896415 x[6,2] + 75396.71414249453 x[6,3]
   + 24863.47777083076 x[6,4] + 3710.985347012456 x[6,5]
   + 117715.1480092422 x[6,7] + 86461.67568175854 x[6,8]
   + 7547.251159430106 x[6,9] + 30782.49471759983 x[7,0]
   + 57874.37372839647 x[7,1] + 63042.73346391511 x[7,2]
   + 54512.07651077845 x[7,3] + 139062.3335760295 x[7,4]
   + 116851.9024825548 x[7,5] + 117715.1480092422 x[7,6]
   + 32478.06976798746 x[7,8] + 110576.2505968241 x[7,9]
   + 7003.559544565849 x[8,0] + 46701.68388471497 x[8,1]
   + 30566.06071020912 x[8,2] + 25045.84628464162 x[8,3]
   + 108910.7231721063 x[8,4] + 85939.24747102745 x[8,5]
   + 86461.67568175854 x[8,6] + 32478.06976798746 x[8,7]
   + 79588.63929952335 x[8,9] + 79829.94341542452 x[9,0]
   + 104275.5092901661 x[9,1] + 52333.09962481724 x[9,2]
   + 69724.46308203375 x[9,3] + 30090.87203180838 x[9,4]
   + 6364.246875081939 x[9,5] + 7547.251159430106 x[9,6]
   + 110576.2505968241 x[9,7] + 79588.63929952335 x[9,8]
Subject To
 R0: x[1,0] + x[1,2] + x[1,3] + x[1,4] + x[1,5] + x[1,6] + x[1,7] + x[1,8]
   + x[1,9] = 1
 R1: x[2,0] + x[2,1] + x[2,3] + x[2,4] + x[2,5] + x[2,6] + x[2,7] + x[2,8]
   + x[2,9] = 1
 R2: x[3,0] + x[3,1] + x[3,2] + x[3,4] + x[3,5] + x[3,6] + x[3,7] + x[3,8]
   + x[3,9] = 1
 R3: x[4,0] + x[4,1] + x[4,2] + x[4,3] + x[4,5] + x[4,6] + x[4,7] + x[4,8]
   + x[4,9] = 1
 R4: x[5,0] + x[5,1] + x[5,2] + x[5,3] + x[5,4] + x[5,6] + x[5,7] + x[5,8]
   + x[5,9] = 1
 R5: x[6,0] + x[6,1] + x[6,2] + x[6,3] + x[6,4] + x[6,5] + x[6,7] + x[6,8]
   + x[6,9] = 1
 R6: x[7,0] + x[7,1] + x[7,2] + x[7,3] + x[7,4] + x[7,5] + x[7,6] + x[7,8]
   + x[7,9] = 1
 R7: x[8,0] + x[8,1] + x[8,2] + x[8,3] + x[8,4] + x[8,5] + x[8,6] + x[8,7]
   + x[8,9] = 1
 R8: x[9,0] + x[9,1] + x[9,2] + x[9,3] + x[9,4] + x[9,5] + x[9,6] + x[9,7]
   + x[9,8] = 1
 R9: x[0,1] + x[0,2] + x[0,3] + x[0,4] + x[0,5] + x[0,6] + x[0,7] + x[0,8]
   + x[0,9] - x[1,0] - x[2,0] - x[3,0] - x[4,0] - x[5,0] - x[6,0] - x[7,0]
   - x[8,0] - x[9,0] = 0
 R10: - x[0,1] + x[1,0] + x[1,2] + x[1,3] + x[1,4] + x[1,5] + x[1,6]
   + x[1,7] + x[1,8] + x[1,9] - x[2,1] - x[3,1] - x[4,1] - x[5,1] - x[6,1]
   - x[7,1] - x[8,1] - x[9,1] = 0
 R11: - x[0,2] - x[1,2] + x[2,0] + x[2,1] + x[2,3] + x[2,4] + x[2,5]
   + x[2,6] + x[2,7] + x[2,8] + x[2,9] - x[3,2] - x[4,2] - x[5,2] - x[6,2]
   - x[7,2] - x[8,2] - x[9,2] = 0
 R12: - x[0,3] - x[1,3] - x[2,3] + x[3,0] + x[3,1] + x[3,2] + x[3,4]
   + x[3,5] + x[3,6] + x[3,7] + x[3,8] + x[3,9] - x[4,3] - x[5,3] - x[6,3]
   - x[7,3] - x[8,3] - x[9,3] = 0
 R13: - x[0,4] - x[1,4] - x[2,4] - x[3,4] + x[4,0] + x[4,1] + x[4,2]
   + x[4,3] + x[4,5] + x[4,6] + x[4,7] + x[4,8] + x[4,9] - x[5,4] - x[6,4]
   - x[7,4] - x[8,4] - x[9,4] = 0
 R14: - x[0,5] - x[1,5] - x[2,5] - x[3,5] - x[4,5] + x[5,0] + x[5,1]
   + x[5,2] + x[5,3] + x[5,4] + x[5,6] + x[5,7] + x[5,8] + x[5,9] - x[6,5]
   - x[7,5] - x[8,5] - x[9,5] = 0
 R15: - x[0,6] - x[1,6] - x[2,6] - x[3,6] - x[4,6] - x[5,6] + x[6,0]
   + x[6,1] + x[6,2] + x[6,3] + x[6,4] + x[6,5] + x[6,7] + x[6,8] + x[6,9]
   - x[7,6] - x[8,6] - x[9,6] = 0
 R16: - x[0,7] - x[1,7] - x[2,7] - x[3,7] - x[4,7] - x[5,7] - x[6,7]
   + x[7,0] + x[7,1] + x[7,2] + x[7,3] + x[7,4] + x[7,5] + x[7,6] + x[7,8]
   + x[7,9] - x[8,7] - x[9,7] = 0
 R17: - x[0,8] - x[1,8] - x[2,8] - x[3,8] - x[4,8] - x[5,8] - x[6,8]
   - x[7,8] + x[8,0] + x[8,1] + x[8,2] + x[8,3] + x[8,4] + x[8,5] + x[8,6]
   + x[8,7] + x[8,9] - x[9,8] = 0
 R18: - x[0,9] - x[1,9] - x[2,9] - x[3,9] - x[4,9] - x[5,9] - x[6,9]
   - x[7,9] - x[8,9] + x[9,0] + x[9,1] + x[9,2] + x[9,3] + x[9,4] + x[9,5]
   + x[9,6] + x[9,7] + x[9,8] = 0
 Resusability[1]: - x[1,0] + sigma[1,1] + sigma[1,2] + sigma[1,3]
   + sigma[1,4] + sigma[1,5] + sigma[1,6] + sigma[1,7] + sigma[1,8]
   + sigma[1,9] <= 0
 Resusability[2]: - x[2,0] + sigma[2,1] + sigma[2,2] + sigma[2,3]
   + sigma[2,4] + sigma[2,5] + sigma[2,6] + sigma[2,7] + sigma[2,8]
   + sigma[2,9] <= 0
 Resusability[3]: - x[3,0] + sigma[3,1] + sigma[3,2] + sigma[3,3]
   + sigma[3,4] + sigma[3,5] + sigma[3,6] + sigma[3,7] + sigma[3,8]
   + sigma[3,9] <= 0
 Resusability[4]: - x[4,0] + sigma[4,1] + sigma[4,2] + sigma[4,3]
   + sigma[4,4] + sigma[4,5] + sigma[4,6] + sigma[4,7] + sigma[4,8]
   + sigma[4,9] <= 0
 Resusability[5]: - x[5,0] + sigma[5,1] + sigma[5,2] + sigma[5,3]
   + sigma[5,4] + sigma[5,5] + sigma[5,6] + sigma[5,7] + sigma[5,8]
   + sigma[5,9] <= 0
 Resusability[6]: - x[6,0] + sigma[6,1] + sigma[6,2] + sigma[6,3]
   + sigma[6,4] + sigma[6,5] + sigma[6,6] + sigma[6,7] + sigma[6,8]
   + sigma[6,9] <= 0
 Resusability[7]: - x[7,0] + sigma[7,1] + sigma[7,2] + sigma[7,3]
   + sigma[7,4] + sigma[7,5] + sigma[7,6] + sigma[7,7] + sigma[7,8]
   + sigma[7,9] <= 0
 Resusability[8]: - x[8,0] + sigma[8,1] + sigma[8,2] + sigma[8,3]
   + sigma[8,4] + sigma[8,5] + sigma[8,6] + sigma[8,7] + sigma[8,8]
   + sigma[8,9] <= 0
 Resusability[9]: - x[9,0] + sigma[9,1] + sigma[9,2] + sigma[9,3]
   + sigma[9,4] + sigma[9,5] + sigma[9,6] + sigma[9,7] + sigma[9,8]
   + sigma[9,9] <= 0
 R28: - x[0,1] + sigma[1,1] + sigma[2,1] + sigma[3,1] + sigma[4,1]
   + sigma[5,1] + sigma[6,1] + sigma[7,1] + sigma[8,1] + sigma[9,1] <= 0
 R29: - x[0,2] + sigma[1,2] + sigma[2,2] + sigma[3,2] + sigma[4,2]
   + sigma[5,2] + sigma[6,2] + sigma[7,2] + sigma[8,2] + sigma[9,2] <= 0
 R30: - x[0,3] + sigma[1,3] + sigma[2,3] + sigma[3,3] + sigma[4,3]
   + sigma[5,3] + sigma[6,3] + sigma[7,3] + sigma[8,3] + sigma[9,3] <= 0
 R31: - x[0,4] + sigma[1,4] + sigma[2,4] + sigma[3,4] + sigma[4,4]
   + sigma[5,4] + sigma[6,4] + sigma[7,4] + sigma[8,4] + sigma[9,4] <= 0
 R32: - x[0,5] + sigma[1,5] + sigma[2,5] + sigma[3,5] + sigma[4,5]
   + sigma[5,5] + sigma[6,5] + sigma[7,5] + sigma[8,5] + sigma[9,5] <= 0
 R33: - x[0,6] + sigma[1,6] + sigma[2,6] + sigma[3,6] + sigma[4,6]
   + sigma[5,6] + sigma[6,6] + sigma[7,6] + sigma[8,6] + sigma[9,6] <= 0
 R34: - x[0,7] + sigma[1,7] + sigma[2,7] + sigma[3,7] + sigma[4,7]
   + sigma[5,7] + sigma[6,7] + sigma[7,7] + sigma[8,7] + sigma[9,7] <= 0
 R35: - x[0,8] + sigma[1,8] + sigma[2,8] + sigma[3,8] + sigma[4,8]
   + sigma[5,8] + sigma[6,8] + sigma[7,8] + sigma[8,8] + sigma[9,8] <= 0
 R36: - x[0,9] + sigma[1,9] + sigma[2,9] + sigma[3,9] + sigma[4,9]
   + sigma[5,9] + sigma[6,9] + sigma[7,9] + sigma[8,9] + sigma[9,9] <= 0
 R37: x[0,1] + x[0,2] + x[0,3] + x[0,4] + x[0,5] + x[0,6] + x[0,7] + x[0,8]
   + x[0,9] - sigma[1,2] - sigma[1,3] - sigma[1,4] - sigma[1,5]
   - sigma[1,6] - sigma[1,7] - sigma[1,8] - sigma[1,9] - sigma[2,1]
   - sigma[2,3] - sigma[2,4] - sigma[2,5] - sigma[2,6] - sigma[2,7]
   - sigma[2,8] - sigma[2,9] - sigma[3,1] - sigma[3,2] - sigma[3,4]
   - sigma[3,5] - sigma[3,6] - sigma[3,7] - sigma[3,8] - sigma[3,9]
   - sigma[4,1] - sigma[4,2] - sigma[4,3] - sigma[4,5] - sigma[4,6]
   - sigma[4,7] - sigma[4,8] - sigma[4,9] - sigma[5,1] - sigma[5,2]
   - sigma[5,3] - sigma[5,4] - sigma[5,6] - sigma[5,7] - sigma[5,8]
   - sigma[5,9] - sigma[6,1] - sigma[6,2] - sigma[6,3] - sigma[6,4]
   - sigma[6,5] - sigma[6,7] - sigma[6,8] - sigma[6,9] - sigma[7,1]
   - sigma[7,2] - sigma[7,3] - sigma[7,4] - sigma[7,5] - sigma[7,6]
   - sigma[7,8] - sigma[7,9] - sigma[8,1] - sigma[8,2] - sigma[8,3]
   - sigma[8,4] - sigma[8,5] - sigma[8,6] - sigma[8,7] - sigma[8,9]
   - sigma[9,1] - sigma[9,2] - sigma[9,3] - sigma[9,4] - sigma[9,5]
   - sigma[9,6] - sigma[9,7] - sigma[9,8] <= 9
 Demand[1]: y[0,1] - y[1,0] - y[1,2] - y[1,3] - y[1,4] - y[1,5] - y[1,6]
   - y[1,7] - y[1,8] - y[1,9] + y[2,1] + y[3,1] + y[4,1] + y[5,1] + y[6,1]
   + y[7,1] + y[8,1] + y[9,1] = 2
 Demand[2]: y[0,2] + y[1,2] - y[2,0] - y[2,1] - y[2,3] - y[2,4] - y[2,5]
   - y[2,6] - y[2,7] - y[2,8] - y[2,9] + y[3,2] + y[4,2] + y[5,2] + y[6,2]
   + y[7,2] + y[8,2] + y[9,2] = 2
 Demand[3]: y[0,3] + y[1,3] + y[2,3] - y[3,0] - y[3,1] - y[3,2] - y[3,4]
   - y[3,5] - y[3,6] - y[3,7] - y[3,8] - y[3,9] + y[4,3] + y[5,3] + y[6,3]
   + y[7,3] + y[8,3] + y[9,3] = 2
 Demand[4]: y[0,4] + y[1,4] + y[2,4] + y[3,4] - y[4,0] - y[4,1] - y[4,2]
   - y[4,3] - y[4,5] - y[4,6] - y[4,7] - y[4,8] - y[4,9] + y[5,4] + y[6,4]
   + y[7,4] + y[8,4] + y[9,4] = 2
 Demand[5]: y[0,5] + y[1,5] + y[2,5] + y[3,5] + y[4,5] - y[5,0] - y[5,1]
   - y[5,2] - y[5,3] - y[5,4] - y[5,6] - y[5,7] - y[5,8] - y[5,9] + y[6,5]
   + y[7,5] + y[8,5] + y[9,5] = 2
 Demand[6]: y[0,6] + y[1,6] + y[2,6] + y[3,6] + y[4,6] + y[5,6] - y[6,0]
   - y[6,1] - y[6,2] - y[6,3] - y[6,4] - y[6,5] - y[6,7] - y[6,8] - y[6,9]
   + y[7,6] + y[8,6] + y[9,6] = 2
 Demand[7]: y[0,7] + y[1,7] + y[2,7] + y[3,7] + y[4,7] + y[5,7] + y[6,7]
   - y[7,0] - y[7,1] - y[7,2] - y[7,3] - y[7,4] - y[7,5] - y[7,6] - y[7,8]
   - y[7,9] + y[8,7] + y[9,7] = 2
 Demand[8]: y[0,8] + y[1,8] + y[2,8] + y[3,8] + y[4,8] + y[5,8] + y[6,8]
   + y[7,8] - y[8,0] - y[8,1] - y[8,2] - y[8,3] - y[8,4] - y[8,5] - y[8,6]
   - y[8,7] - y[8,9] + y[9,8] = 2
 Demand[9]: y[0,9] + y[1,9] + y[2,9] + y[3,9] + y[4,9] + y[5,9] + y[6,9]
   + y[7,9] + y[8,9] - y[9,0] - y[9,1] - y[9,2] - y[9,3] - y[9,4] - y[9,5]
   - y[9,6] - y[9,7] - y[9,8] = 2
 R47: - 1e+06 x[0,1] + y[0,1] <= 0
 R48: - 1e+06 x[0,2] + y[0,2] <= 0
 R49: - 1e+06 x[0,3] + y[0,3] <= 0
 R50: - 1e+06 x[0,4] + y[0,4] <= 0
 R51: - 1e+06 x[0,5] + y[0,5] <= 0
 R52: - 1e+06 x[0,6] + y[0,6] <= 0
 R53: - 1e+06 x[0,7] + y[0,7] <= 0
 R54: - 1e+06 x[0,8] + y[0,8] <= 0
 R55: - 1e+06 x[0,9] + y[0,9] <= 0
 R56: - 1e+06 x[1,0] + y[1,0] <= 0
 R57: - 1e+06 x[1,2] + y[1,2] <= 0
 R58: - 1e+06 x[1,3] + y[1,3] <= 0
 R59: - 1e+06 x[1,4] + y[1,4] <= 0
 R60: - 1e+06 x[1,5] + y[1,5] <= 0
 R61: - 1e+06 x[1,6] + y[1,6] <= 0
 R62: - 1e+06 x[1,7] + y[1,7] <= 0
 R63: - 1e+06 x[1,8] + y[1,8] <= 0
 R64: - 1e+06 x[1,9] + y[1,9] <= 0
 R65: - 1e+06 x[2,0] + y[2,0] <= 0
 R66: - 1e+06 x[2,1] + y[2,1] <= 0
 R67: - 1e+06 x[2,3] + y[2,3] <= 0
 R68: - 1e+06 x[2,4] + y[2,4] <= 0
 R69: - 1e+06 x[2,5] + y[2,5] <= 0
 R70: - 1e+06 x[2,6] + y[2,6] <= 0
 R71: - 1e+06 x[2,7] + y[2,7] <= 0
 R72: - 1e+06 x[2,8] + y[2,8] <= 0
 R73: - 1e+06 x[2,9] + y[2,9] <= 0
 R74: - 1e+06 x[3,0] + y[3,0] <= 0
 R75: - 1e+06 x[3,1] + y[3,1] <= 0
 R76: - 1e+06 x[3,2] + y[3,2] <= 0
 R77: - 1e+06 x[3,4] + y[3,4] <= 0
 R78: - 1e+06 x[3,5] + y[3,5] <= 0
 R79: - 1e+06 x[3,6] + y[3,6] <= 0
 R80: - 1e+06 x[3,7] + y[3,7] <= 0
 R81: - 1e+06 x[3,8] + y[3,8] <= 0
 R82: - 1e+06 x[3,9] + y[3,9] <= 0
 R83: - 1e+06 x[4,0] + y[4,0] <= 0
 R84: - 1e+06 x[4,1] + y[4,1] <= 0
 R85: - 1e+06 x[4,2] + y[4,2] <= 0
 R86: - 1e+06 x[4,3] + y[4,3] <= 0
 R87: - 1e+06 x[4,5] + y[4,5] <= 0
 R88: - 1e+06 x[4,6] + y[4,6] <= 0
 R89: - 1e+06 x[4,7] + y[4,7] <= 0
 R90: - 1e+06 x[4,8] + y[4,8] <= 0
 R91: - 1e+06 x[4,9] + y[4,9] <= 0
 R92: - 1e+06 x[5,0] + y[5,0] <= 0
 R93: - 1e+06 x[5,1] + y[5,1] <= 0
 R94: - 1e+06 x[5,2] + y[5,2] <= 0
 R95: - 1e+06 x[5,3] + y[5,3] <= 0
 R96: - 1e+06 x[5,4] + y[5,4] <= 0
 R97: - 1e+06 x[5,6] + y[5,6] <= 0
 R98: - 1e+06 x[5,7] + y[5,7] <= 0
 R99: - 1e+06 x[5,8] + y[5,8] <= 0
 R100: - 1e+06 x[5,9] + y[5,9] <= 0
 R101: - 1e+06 x[6,0] + y[6,0] <= 0
 R102: - 1e+06 x[6,1] + y[6,1] <= 0
 R103: - 1e+06 x[6,2] + y[6,2] <= 0
 R104: - 1e+06 x[6,3] + y[6,3] <= 0
 R105: - 1e+06 x[6,4] + y[6,4] <= 0
 R106: - 1e+06 x[6,5] + y[6,5] <= 0
 R107: - 1e+06 x[6,7] + y[6,7] <= 0
 R108: - 1e+06 x[6,8] + y[6,8] <= 0
 R109: - 1e+06 x[6,9] + y[6,9] <= 0
 R110: - 1e+06 x[7,0] + y[7,0] <= 0
 R111: - 1e+06 x[7,1] + y[7,1] <= 0
 R112: - 1e+06 x[7,2] + y[7,2] <= 0
 R113: - 1e+06 x[7,3] + y[7,3] <= 0
 R114: - 1e+06 x[7,4] + y[7,4] <= 0
 R115: - 1e+06 x[7,5] + y[7,5] <= 0
 R116: - 1e+06 x[7,6] + y[7,6] <= 0
 R117: - 1e+06 x[7,8] + y[7,8] <= 0
 R118: - 1e+06 x[7,9] + y[7,9] <= 0
 R119: - 1e+06 x[8,0] + y[8,0] <= 0
 R120: - 1e+06 x[8,1] + y[8,1] <= 0
 R121: - 1e+06 x[8,2] + y[8,2] <= 0
 R122: - 1e+06 x[8,3] + y[8,3] <= 0
 R123: - 1e+06 x[8,4] + y[8,4] <= 0
 R124: - 1e+06 x[8,5] + y[8,5] <= 0
 R125: - 1e+06 x[8,6] + y[8,6] <= 0
 R126: - 1e+06 x[8,7] + y[8,7] <= 0
 R127: - 1e+06 x[8,9] + y[8,9] <= 0
 R128: - 1e+06 x[9,0] + y[9,0] <= 0
 R129: - 1e+06 x[9,1] + y[9,1] <= 0
 R130: - 1e+06 x[9,2] + y[9,2] <= 0
 R131: - 1e+06 x[9,3] + y[9,3] <= 0
 R132: - 1e+06 x[9,4] + y[9,4] <= 0
 R133: - 1e+06 x[9,5] + y[9,5] <= 0
 R134: - 1e+06 x[9,6] + y[9,6] <= 0
 R135: - 1e+06 x[9,7] + y[9,7] <= 0
 R136: - 1e+06 x[9,8] + y[9,8] <= 0
 Time[0,1]: 1e+06 x[0,1] + t[0] - t[1] <= 998556.5414854056
 Time[0,2]: 1e+06 x[0,2] + t[0] - t[2] <= 999089.1504932881
 Time[0,3]: 1e+06 x[0,3] + t[0] - t[3] <= 999157.0447405151
 Time[0,4]: 1e+06 x[0,4] + t[0] - t[4] <= 997065.9193893675
 Time[0,5]: 1e+06 x[0,5] + t[0] - t[5] <= 997672.3598295694
 Time[0,6]: 1e+06 x[0,6] + t[0] - t[6] <= 997650.249534677
 Time[0,7]: 1e+06 x[0,7] + t[0] - t[7] <= 999168.0406833082
 Time[0,8]: 1e+06 x[0,8] + t[0] - t[8] <= 999810.7146069036
 Time[0,9]: 1e+06 x[0,9] + t[0] - t[9] <= 997842.4339617452
 Time[1,2]: 1e+06 x[1,2] + t[1] - t[2] <= 998526.9850258246
 Time[1,3]: 1e+06 x[1,3] + t[1] - t[3] <= 999020.4927820751
 Time[1,4]: 1e+06 x[1,4] + t[1] - t[4] <= 996377.9114817641
 Time[1,5]: 1e+06 x[1,5] + t[1] - t[5] <= 997020.7650965397
 Time[1,6]: 1e+06 x[1,6] + t[1] - t[6] <= 997048.1556664314
 Time[1,7]: 1e+06 x[1,7] + t[1] - t[7] <= 998435.8277370704
 Time[1,8]: 1e+06 x[1,8] + t[1] - t[8] <= 998737.7923274401
 Time[1,9]: 1e+06 x[1,9] + t[1] - t[9] <= 997181.7429921577
 Time[2,1]: 1e+06 x[2,1] - t[1] + t[2] <= 998526.9850258246
 Time[2,3]: 1e+06 x[2,3] + t[2] - t[3] <= 999504.7998878956
 Time[2,4]: 1e+06 x[2,4] + t[2] - t[4] <= 997772.9934399723
 Time[2,5]: 1e+06 x[2,5] + t[2] - t[5] <= 998415.2344121176
 Time[2,6]: 1e+06 x[2,6] + t[2] - t[6] <= 998419.4799489286
 Time[2,7]: 1e+06 x[2,7] + t[2] - t[7] <= 998296.142338813
 Time[2,8]: 1e+06 x[2,8] + t[2] - t[8] <= 999173.8902510754
 Time[2,9]: 1e+06 x[2,9] + t[2] - t[9] <= 998585.5919020319
 Time[3,1]: 1e+06 x[3,1] - t[1] + t[3] <= 999020.4927820751
 Time[3,2]: 1e+06 x[3,2] - t[2] + t[3] <= 999504.7998878956
 Time[3,4]: 1e+06 x[3,4] + t[3] - t[4] <= 997302.8536703197
 Time[3,5]: 1e+06 x[3,5] + t[3] - t[5] <= 997948.1558022097
 Time[3,6]: 1e+06 x[3,6] + t[3] - t[6] <= 997962.2509691218
 Time[3,7]: 1e+06 x[3,7] + t[3] - t[7] <= 998526.7006348438
 Time[3,8]: 1e+06 x[3,8] + t[3] - t[8] <= 999323.0852355502
 Time[3,9]: 1e+06 x[3,9] + t[3] - t[9] <= 998115.5550518369
 Time[4,1]: 1e+06 x[4,1] - t[1] + t[4] <= 996377.9114817641
 Time[4,2]: 1e+06 x[4,2] - t[2] + t[4] <= 997772.9934399723
 Time[4,3]: 1e+06 x[4,3] - t[3] + t[4] <= 997302.8536703197
 Time[4,5]: 1e+06 x[4,5] + t[4] - t[5] <= 999354.5076244449
 Time[4,6]: 1e+06 x[4,6] + t[4] - t[6] <= 999328.0141143019
 Time[4,7]: 1e+06 x[4,7] + t[4] - t[7] <= 996241.5585519992
 Time[4,8]: 1e+06 x[4,8] + t[4] - t[8] <= 997056.4669412944
 Time[4,9]: 1e+06 x[4,9] + t[4] - t[9] <= 999186.7331883295
 Time[5,1]: 1e+06 x[5,1] - t[1] + t[5] <= 997020.7650965397
 Time[5,2]: 1e+06 x[5,2] - t[2] + t[5] <= 998415.2344121176
 Time[5,3]: 1e+06 x[5,3] - t[3] + t[5] <= 997948.1558022097
 Time[5,4]: 1e+06 x[5,4] - t[4] + t[5] <= 999354.5076244449
 Time[5,6]: 1e+06 x[5,6] + t[5] - t[6] <= 999899.7030987294
 Time[5,7]: 1e+06 x[5,7] + t[5] - t[7] <= 996841.8404734444
 Time[5,8]: 1e+06 x[5,8] + t[5] - t[8] <= 997677.3176359182
 Time[5,9]: 1e+06 x[5,9] + t[5] - t[9] <= 999827.9933277005
 Time[6,1]: 1e+06 x[6,1] - t[1] + t[6] <= 997048.1556664314
 Time[6,2]: 1e+06 x[6,2] - t[2] + t[6] <= 998419.4799489286
 Time[6,3]: 1e+06 x[6,3] - t[3] + t[6] <= 997962.2509691218
 Time[6,4]: 1e+06 x[6,4] - t[4] + t[6] <= 999328.0141143019
 Time[6,5]: 1e+06 x[6,5] - t[5] + t[6] <= 999899.7030987294
 Time[6,7]: 1e+06 x[6,7] + t[6] - t[7] <= 996818.5095132637
 Time[6,8]: 1e+06 x[6,8] + t[6] - t[8] <= 997663.197954547
 Time[6,9]: 1e+06 x[6,9] + t[6] - t[9] <= 999796.0202389343
 Time[7,1]: 1e+06 x[7,1] - t[1] + t[7] <= 998435.8277370704
 Time[7,2]: 1e+06 x[7,2] - t[2] + t[7] <= 998296.142338813
 Time[7,3]: 1e+06 x[7,3] - t[3] + t[7] <= 998526.7006348438
 Time[7,4]: 1e+06 x[7,4] - t[4] + t[7] <= 996241.5585519992
 Time[7,5]: 1e+06 x[7,5] - t[5] + t[7] <= 996841.8404734444
 Time[7,6]: 1e+06 x[7,6] - t[6] + t[7] <= 996818.5095132637
 Time[7,8]: 1e+06 x[7,8] + t[7] - t[8] <= 999122.214330595
 Time[7,9]: 1e+06 x[7,9] + t[7] - t[9] <= 997011.4526865723
 Time[8,1]: 1e+06 x[8,1] - t[1] + t[8] <= 998737.7923274401
 Time[8,2]: 1e+06 x[8,2] - t[2] + t[8] <= 999173.8902510754
 Time[8,3]: 1e+06 x[8,3] - t[3] + t[8] <= 999323.0852355502
 Time[8,4]: 1e+06 x[8,4] - t[4] + t[8] <= 997056.4669412944
 Time[8,5]: 1e+06 x[8,5] - t[5] + t[8] <= 997677.3176359182
 Time[8,6]: 1e+06 x[8,6] - t[6] + t[8] <= 997663.197954547
 Time[8,7]: 1e+06 x[8,7] - t[7] + t[8] <= 999122.214330595
 Time[8,9]: 1e+06 x[8,9] + t[8] - t[9] <= 997848.9556946075
 Time[9,1]: 1e+06 x[9,1] - t[1] + t[9] <= 997181.7429921577
 Time[9,2]: 1e+06 x[9,2] - t[2] + t[9] <= 998585.5919020319
 Time[9,3]: 1e+06 x[9,3] - t[3] + t[9] <= 998115.5550518369
 Time[9,4]: 1e+06 x[9,4] - t[4] + t[9] <= 999186.7331883295
 Time[9,5]: 1e+06 x[9,5] - t[5] + t[9] <= 999827.9933277005
 Time[9,6]: 1e+06 x[9,6] - t[6] + t[9] <= 999796.0202389343
 Time[9,7]: 1e+06 x[9,7] - t[7] + t[9] <= 997011.4526865723
 Time[9,8]: 1e+06 x[9,8] - t[8] + t[9] <= 997848.9556946075
 R218: 1e+06 x[1,0] + t[1] - a[1] <= 998556.5414854056
 R219: 1e+06 x[2,0] + t[2] - a[2] <= 999089.1504932881
 R220: 1e+06 x[3,0] + t[3] - a[3] <= 999157.0447405151
 R221: 1e+06 x[4,0] + t[4] - a[4] <= 997065.9193893675
 R222: 1e+06 x[5,0] + t[5] - a[5] <= 997672.3598295694
 R223: 1e+06 x[6,0] + t[6] - a[6] <= 997650.249534677
 R224: 1e+06 x[7,0] + t[7] - a[7] <= 999168.0406833082
 R225: 1e+06 x[8,0] + t[8] - a[8] <= 999810.7146069036
 R226: 1e+06 x[9,0] + t[9] - a[9] <= 997842.4339617452
 R227: 1e+06 sigma[1,2] - t[2] + a[1] <= 999089.1504932881
 R228: 1e+06 sigma[1,3] - t[3] + a[1] <= 999157.0447405151
 R229: 1e+06 sigma[1,4] - t[4] + a[1] <= 997065.9193893675
 R230: 1e+06 sigma[1,5] - t[5] + a[1] <= 997672.3598295694
 R231: 1e+06 sigma[1,6] - t[6] + a[1] <= 997650.249534677
 R232: 1e+06 sigma[1,7] - t[7] + a[1] <= 999168.0406833082
 R233: 1e+06 sigma[1,8] - t[8] + a[1] <= 999810.7146069036
 R234: 1e+06 sigma[1,9] - t[9] + a[1] <= 997842.4339617452
 R235: 1e+06 sigma[2,1] - t[1] + a[2] <= 998556.5414854056
 R236: 1e+06 sigma[2,3] - t[3] + a[2] <= 999157.0447405151
 R237: 1e+06 sigma[2,4] - t[4] + a[2] <= 997065.9193893675
 R238: 1e+06 sigma[2,5] - t[5] + a[2] <= 997672.3598295694
 R239: 1e+06 sigma[2,6] - t[6] + a[2] <= 997650.249534677
 R240: 1e+06 sigma[2,7] - t[7] + a[2] <= 999168.0406833082
 R241: 1e+06 sigma[2,8] - t[8] + a[2] <= 999810.7146069036
 R242: 1e+06 sigma[2,9] - t[9] + a[2] <= 997842.4339617452
 R243: 1e+06 sigma[3,1] - t[1] + a[3] <= 998556.5414854056
 R244: 1e+06 sigma[3,2] - t[2] + a[3] <= 999089.1504932881
 R245: 1e+06 sigma[3,4] - t[4] + a[3] <= 997065.9193893675
 R246: 1e+06 sigma[3,5] - t[5] + a[3] <= 997672.3598295694
 R247: 1e+06 sigma[3,6] - t[6] + a[3] <= 997650.249534677
 R248: 1e+06 sigma[3,7] - t[7] + a[3] <= 999168.0406833082
 R249: 1e+06 sigma[3,8] - t[8] + a[3] <= 999810.7146069036
 R250: 1e+06 sigma[3,9] - t[9] + a[3] <= 997842.4339617452
 R251: 1e+06 sigma[4,1] - t[1] + a[4] <= 998556.5414854056
 R252: 1e+06 sigma[4,2] - t[2] + a[4] <= 999089.1504932881
 R253: 1e+06 sigma[4,3] - t[3] + a[4] <= 999157.0447405151
 R254: 1e+06 sigma[4,5] - t[5] + a[4] <= 997672.3598295694
 R255: 1e+06 sigma[4,6] - t[6] + a[4] <= 997650.249534677
 R256: 1e+06 sigma[4,7] - t[7] + a[4] <= 999168.0406833082
 R257: 1e+06 sigma[4,8] - t[8] + a[4] <= 999810.7146069036
 R258: 1e+06 sigma[4,9] - t[9] + a[4] <= 997842.4339617452
 R259: 1e+06 sigma[5,1] - t[1] + a[5] <= 998556.5414854056
 R260: 1e+06 sigma[5,2] - t[2] + a[5] <= 999089.1504932881
 R261: 1e+06 sigma[5,3] - t[3] + a[5] <= 999157.0447405151
 R262: 1e+06 sigma[5,4] - t[4] + a[5] <= 997065.9193893675
 R263: 1e+06 sigma[5,6] - t[6] + a[5] <= 997650.249534677
 R264: 1e+06 sigma[5,7] - t[7] + a[5] <= 999168.0406833082
 R265: 1e+06 sigma[5,8] - t[8] + a[5] <= 999810.7146069036
 R266: 1e+06 sigma[5,9] - t[9] + a[5] <= 997842.4339617452
 R267: 1e+06 sigma[6,1] - t[1] + a[6] <= 998556.5414854056
 R268: 1e+06 sigma[6,2] - t[2] + a[6] <= 999089.1504932881
 R269: 1e+06 sigma[6,3] - t[3] + a[6] <= 999157.0447405151
 R270: 1e+06 sigma[6,4] - t[4] + a[6] <= 997065.9193893675
 R271: 1e+06 sigma[6,5] - t[5] + a[6] <= 997672.3598295694
 R272: 1e+06 sigma[6,7] - t[7] + a[6] <= 999168.0406833082
 R273: 1e+06 sigma[6,8] - t[8] + a[6] <= 999810.7146069036
 R274: 1e+06 sigma[6,9] - t[9] + a[6] <= 997842.4339617452
 R275: 1e+06 sigma[7,1] - t[1] + a[7] <= 998556.5414854056
 R276: 1e+06 sigma[7,2] - t[2] + a[7] <= 999089.1504932881
 R277: 1e+06 sigma[7,3] - t[3] + a[7] <= 999157.0447405151
 R278: 1e+06 sigma[7,4] - t[4] + a[7] <= 997065.9193893675
 R279: 1e+06 sigma[7,5] - t[5] + a[7] <= 997672.3598295694
 R280: 1e+06 sigma[7,6] - t[6] + a[7] <= 997650.249534677
 R281: 1e+06 sigma[7,8] - t[8] + a[7] <= 999810.7146069036
 R282: 1e+06 sigma[7,9] - t[9] + a[7] <= 997842.4339617452
 R283: 1e+06 sigma[8,1] - t[1] + a[8] <= 998556.5414854056
 R284: 1e+06 sigma[8,2] - t[2] + a[8] <= 999089.1504932881
 R285: 1e+06 sigma[8,3] - t[3] + a[8] <= 999157.0447405151
 R286: 1e+06 sigma[8,4] - t[4] + a[8] <= 997065.9193893675
 R287: 1e+06 sigma[8,5] - t[5] + a[8] <= 997672.3598295694
 R288: 1e+06 sigma[8,6] - t[6] + a[8] <= 997650.249534677
 R289: 1e+06 sigma[8,7] - t[7] + a[8] <= 999168.0406833082
 R290: 1e+06 sigma[8,9] - t[9] + a[8] <= 997842.4339617452
 R291: 1e+06 sigma[9,1] - t[1] + a[9] <= 998556.5414854056
 R292: 1e+06 sigma[9,2] - t[2] + a[9] <= 999089.1504932881
 R293: 1e+06 sigma[9,3] - t[3] + a[9] <= 999157.0447405151
 R294: 1e+06 sigma[9,4] - t[4] + a[9] <= 997065.9193893675
 R295: 1e+06 sigma[9,5] - t[5] + a[9] <= 997672.3598295694
 R296: 1e+06 sigma[9,6] - t[6] + a[9] <= 997650.249534677
 R297: 1e+06 sigma[9,7] - t[7] + a[9] <= 999168.0406833082
 R298: 1e+06 sigma[9,8] - t[8] + a[9] <= 999810.7146069036
 R299: t[1] <= 7600
 R300: t[2] <= 7600
 R301: t[3] <= 7600
 R302: t[4] <= 7600
 R303: t[5] <= 7600
 R304: t[6] <= 7600
 R305: t[7] <= 7600
 R306: t[8] <= 7600
 R307: t[9] <= 7600
 Capacity[0,1]: - 10 x[0,1] + y[0,1] <= 0
 Capacity[0,2]: - 10 x[0,2] + y[0,2] <= 0
 Capacity[0,3]: - 10 x[0,3] + y[0,3] <= 0
 Capacity[0,4]: - 10 x[0,4] + y[0,4] <= 0
 Capacity[0,5]: - 10 x[0,5] + y[0,5] <= 0
 Capacity[0,6]: - 10 x[0,6] + y[0,6] <= 0
 Capacity[0,7]: - 10 x[0,7] + y[0,7] <= 0
 Capacity[0,8]: - 10 x[0,8] + y[0,8] <= 0
 Capacity[0,9]: - 10 x[0,9] + y[0,9] <= 0
 Capacity[1,0]: - 10 x[1,0] + y[1,0] <= 0
 Capacity[1,2]: - 10 x[1,2] + y[1,2] <= 0
 Capacity[1,3]: - 10 x[1,3] + y[1,3] <= 0
 Capacity[1,4]: - 10 x[1,4] + y[1,4] <= 0
 Capacity[1,5]: - 10 x[1,5] + y[1,5] <= 0
 Capacity[1,6]: - 10 x[1,6] + y[1,6] <= 0
 Capacity[1,7]: - 10 x[1,7] + y[1,7] <= 0
 Capacity[1,8]: - 10 x[1,8] + y[1,8] <= 0
 Capacity[1,9]: - 10 x[1,9] + y[1,9] <= 0
 Capacity[2,0]: - 10 x[2,0] + y[2,0] <= 0
 Capacity[2,1]: - 10 x[2,1] + y[2,1] <= 0
 Capacity[2,3]: - 10 x[2,3] + y[2,3] <= 0
 Capacity[2,4]: - 10 x[2,4] + y[2,4] <= 0
 Capacity[2,5]: - 10 x[2,5] + y[2,5] <= 0
 Capacity[2,6]: - 10 x[2,6] + y[2,6] <= 0
 Capacity[2,7]: - 10 x[2,7] + y[2,7] <= 0
 Capacity[2,8]: - 10 x[2,8] + y[2,8] <= 0
 Capacity[2,9]: - 10 x[2,9] + y[2,9] <= 0
 Capacity[3,0]: - 10 x[3,0] + y[3,0] <= 0
 Capacity[3,1]: - 10 x[3,1] + y[3,1] <= 0
 Capacity[3,2]: - 10 x[3,2] + y[3,2] <= 0
 Capacity[3,4]: - 10 x[3,4] + y[3,4] <= 0
 Capacity[3,5]: - 10 x[3,5] + y[3,5] <= 0
 Capacity[3,6]: - 10 x[3,6] + y[3,6] <= 0
 Capacity[3,7]: - 10 x[3,7] + y[3,7] <= 0
 Capacity[3,8]: - 10 x[3,8] + y[3,8] <= 0
 Capacity[3,9]: - 10 x[3,9] + y[3,9] <= 0
 Capacity[4,0]: - 10 x[4,0] + y[4,0] <= 0
 Capacity[4,1]: - 10 x[4,1] + y[4,1] <= 0
 Capacity[4,2]: - 10 x[4,2] + y[4,2] <= 0
 Capacity[4,3]: - 10 x[4,3] + y[4,3] <= 0
 Capacity[4,5]: - 10 x[4,5] + y[4,5] <= 0
 Capacity[4,6]: - 10 x[4,6] + y[4,6] <= 0
 Capacity[4,7]: - 10 x[4,7] + y[4,7] <= 0
 Capacity[4,8]: - 10 x[4,8] + y[4,8] <= 0
 Capacity[4,9]: - 10 x[4,9] + y[4,9] <= 0
 Capacity[5,0]: - 10 x[5,0] + y[5,0] <= 0
 Capacity[5,1]: - 10 x[5,1] + y[5,1] <= 0
 Capacity[5,2]: - 10 x[5,2] + y[5,2] <= 0
 Capacity[5,3]: - 10 x[5,3] + y[5,3] <= 0
 Capacity[5,4]: - 10 x[5,4] + y[5,4] <= 0
 Capacity[5,6]: - 10 x[5,6] + y[5,6] <= 0
 Capacity[5,7]: - 10 x[5,7] + y[5,7] <= 0
 Capacity[5,8]: - 10 x[5,8] + y[5,8] <= 0
 Capacity[5,9]: - 10 x[5,9] + y[5,9] <= 0
 Capacity[6,0]: - 10 x[6,0] + y[6,0] <= 0
 Capacity[6,1]: - 10 x[6,1] + y[6,1] <= 0
 Capacity[6,2]: - 10 x[6,2] + y[6,2] <= 0
 Capacity[6,3]: - 10 x[6,3] + y[6,3] <= 0
 Capacity[6,4]: - 10 x[6,4] + y[6,4] <= 0
 Capacity[6,5]: - 10 x[6,5] + y[6,5] <= 0
 Capacity[6,7]: - 10 x[6,7] + y[6,7] <= 0
 Capacity[6,8]: - 10 x[6,8] + y[6,8] <= 0
 Capacity[6,9]: - 10 x[6,9] + y[6,9] <= 0
 Capacity[7,0]: - 10 x[7,0] + y[7,0] <= 0
 Capacity[7,1]: - 10 x[7,1] + y[7,1] <= 0
 Capacity[7,2]: - 10 x[7,2] + y[7,2] <= 0
 Capacity[7,3]: - 10 x[7,3] + y[7,3] <= 0
 Capacity[7,4]: - 10 x[7,4] + y[7,4] <= 0
 Capacity[7,5]: - 10 x[7,5] + y[7,5] <= 0
 Capacity[7,6]: - 10 x[7,6] + y[7,6] <= 0
 Capacity[7,8]: - 10 x[7,8] + y[7,8] <= 0
 Capacity[7,9]: - 10 x[7,9] + y[7,9] <= 0
 Capacity[8,0]: - 10 x[8,0] + y[8,0] <= 0
 Capacity[8,1]: - 10 x[8,1] + y[8,1] <= 0
 Capacity[8,2]: - 10 x[8,2] + y[8,2] <= 0
 Capacity[8,3]: - 10 x[8,3] + y[8,3] <= 0
 Capacity[8,4]: - 10 x[8,4] + y[8,4] <= 0
 Capacity[8,5]: - 10 x[8,5] + y[8,5] <= 0
 Capacity[8,6]: - 10 x[8,6] + y[8,6] <= 0
 Capacity[8,7]: - 10 x[8,7] + y[8,7] <= 0
 Capacity[8,9]: - 10 x[8,9] + y[8,9] <= 0
 Capacity[9,0]: - 10 x[9,0] + y[9,0] <= 0
 Capacity[9,1]: - 10 x[9,1] + y[9,1] <= 0
 Capacity[9,2]: - 10 x[9,2] + y[9,2] <= 0
 Capacity[9,3]: - 10 x[9,3] + y[9,3] <= 0
 Capacity[9,4]: - 10 x[9,4] + y[9,4] <= 0
 Capacity[9,5]: - 10 x[9,5] + y[9,5] <= 0
 Capacity[9,6]: - 10 x[9,6] + y[9,6] <= 0
 Capacity[9,7]: - 10 x[9,7] + y[9,7] <= 0
 Capacity[9,8]: - 10 x[9,8] + y[9,8] <= 0
 Enegry[0,1]: 1e+06 x[0,1] + f[0] - f[1] <= 958861.4323340609
 Enegry[0,2]: 1e+06 x[0,2] + f[0] - f[2] <= 974040.7890587109
 Enegry[0,3]: 1e+06 x[0,3] + f[0] - f[3] <= 975975.7751046797
 Enegry[0,4]: 1e+06 x[0,4] + f[0] - f[4] <= 916378.702596972
 Enegry[0,5]: 1e+06 x[0,5] + f[0] - f[5] <= 933662.255142728
 Enegry[0,6]: 1e+06 x[0,6] + f[0] - f[6] <= 933032.1117382953
 Enegry[0,7]: 1e+06 x[0,7] + f[0] - f[7] <= 976289.1594742812
 Enegry[0,8]: 1e+06 x[0,8] + f[0] - f[8] <= 994605.3662967533
 Enegry[0,9]: 1e+06 x[0,9] + f[0] - f[9] <= 938509.3679097405
 Enegry[1,2]: 1e+06 x[1,2] + f[1] - f[2] <= 958019.0732360033
 Enegry[1,3]: 1e+06 x[1,3] + f[1] - f[3] <= 972084.0442891388
 Enegry[1,4]: 1e+06 x[1,4] + f[1] - f[4] <= 896770.4772302752
 Enegry[1,5]: 1e+06 x[1,5] + f[1] - f[5] <= 915091.8052513839
 Enegry[1,6]: 1e+06 x[1,6] + f[1] - f[6] <= 915872.4364932968
 Enegry[1,7]: 1e+06 x[1,7] + f[1] - f[7] <= 955421.0905065055
 Enegry[1,8]: 1e+06 x[1,8] + f[1] - f[8] <= 964027.0813320439
 Enegry[1,9]: 1e+06 x[1,9] + f[1] - f[9] <= 919679.6752764937
 Enegry[2,1]: 1e+06 x[2,1] - f[1] + f[2] <= 958019.0732360033
 Enegry[2,3]: 1e+06 x[2,3] + f[2] - f[3] <= 985886.7968050233
 Enegry[2,4]: 1e+06 x[2,4] + f[2] - f[4] <= 936530.3130392084
 Enegry[2,5]: 1e+06 x[2,5] + f[2] - f[5] <= 954834.1807453533
 Enegry[2,6]: 1e+06 x[2,6] + f[2] - f[6] <= 954955.1785444653
 Enegry[2,7]: 1e+06 x[2,7] + f[2] - f[7] <= 951440.0566561735
 Enegry[2,8]: 1e+06 x[2,8] + f[2] - f[8] <= 976455.8721556497
 Enegry[2,9]: 1e+06 x[2,9] + f[2] - f[9] <= 959689.3692079111
 Enegry[3,1]: 1e+06 x[3,1] - f[1] + f[3] <= 972084.0442891388
 Enegry[3,2]: 1e+06 x[3,2] - f[2] + f[3] <= 985886.7968050233
 Enegry[3,4]: 1e+06 x[3,4] + f[3] - f[4] <= 923131.3296041104
 Enegry[3,5]: 1e+06 x[3,5] + f[3] - f[5] <= 941522.4403629766
 Enegry[3,6]: 1e+06 x[3,6] + f[3] - f[6] <= 941924.1526199704
 Enegry[3,7]: 1e+06 x[3,7] + f[3] - f[7] <= 958010.968093049
 Enegry[3,8]: 1e+06 x[3,8] + f[3] - f[8] <= 980707.9292131815
 Enegry[3,9]: 1e+06 x[3,9] + f[3] - f[9] <= 946293.3189773523
 Enegry[4,1]: 1e+06 x[4,1] - f[1] + f[4] <= 896770.4772302752
 Enegry[4,2]: 1e+06 x[4,2] - f[2] + f[4] <= 936530.3130392084
 Enegry[4,3]: 1e+06 x[4,3] - f[3] + f[4] <= 923131.3296041104
 Enegry[4,5]: 1e+06 x[4,5] + f[4] - f[5] <= 981603.4672966782
 Enegry[4,6]: 1e+06 x[4,6] + f[4] - f[6] <= 980848.4022576034
 Enegry[4,7]: 1e+06 x[4,7] + f[4] - f[7] <= 892884.4187319772
 Enegry[4,8]: 1e+06 x[4,8] + f[4] - f[8] <= 916109.3078268911
 Enegry[4,9]: 1e+06 x[4,9] + f[4] - f[9] <= 976821.8958673908
 Enegry[5,1]: 1e+06 x[5,1] - f[1] + f[5] <= 915091.8052513839
 Enegry[5,2]: 1e+06 x[5,2] - f[2] + f[5] <= 954834.1807453533
 Enegry[5,3]: 1e+06 x[5,3] - f[3] + f[5] <= 941522.4403629766
 Enegry[5,4]: 1e+06 x[5,4] - f[4] + f[5] <= 981603.4672966782
 Enegry[5,6]: 1e+06 x[5,6] + f[5] - f[6] <= 997141.5383137877
 Enegry[5,7]: 1e+06 x[5,7] + f[5] - f[7] <= 909992.4534931673
 Enegry[5,8]: 1e+06 x[5,8] + f[5] - f[8] <= 933803.552623668
 Enegry[5,9]: 1e+06 x[5,9] + f[5] - f[9] <= 995097.8098394639
 Enegry[6,1]: 1e+06 x[6,1] - f[1] + f[6] <= 915872.4364932968
 Enegry[6,2]: 1e+06 x[6,2] - f[2] + f[6] <= 954955.1785444653
 Enegry[6,3]: 1e+06 x[6,3] - f[3] + f[6] <= 941924.1526199704
 Enegry[6,4]: 1e+06 x[6,4] - f[4] + f[6] <= 980848.4022576034
 Enegry[6,5]: 1e+06 x[6,5] - f[5] + f[6] <= 997141.5383137877
 Enegry[6,7]: 1e+06 x[6,7] + f[6] - f[7] <= 909327.5211280162
 Enegry[6,8]: 1e+06 x[6,8] + f[6] - f[8] <= 933401.1417045915
 Enegry[6,9]: 1e+06 x[6,9] + f[6] - f[9] <= 994186.5768096282
 Enegry[7,1]: 1e+06 x[7,1] - f[1] + f[7] <= 955421.0905065055
 Enegry[7,2]: 1e+06 x[7,2] - f[2] + f[7] <= 951440.0566561735
 Enegry[7,3]: 1e+06 x[7,3] - f[3] + f[7] <= 958010.968093049
 Enegry[7,4]: 1e+06 x[7,4] - f[4] + f[7] <= 892884.4187319772
 Enegry[7,5]: 1e+06 x[7,5] - f[5] + f[7] <= 909992.4534931673
 Enegry[7,6]: 1e+06 x[7,6] - f[6] + f[7] <= 909327.5211280162
 Enegry[7,8]: 1e+06 x[7,8] + f[7] - f[8] <= 974983.1084219556
 Enegry[7,9]: 1e+06 x[7,9] + f[7] - f[9] <= 914826.4015673113
 Enegry[8,1]: 1e+06 x[8,1] - f[1] + f[8] <= 964027.0813320439
 Enegry[8,2]: 1e+06 x[8,2] - f[2] + f[8] <= 976455.8721556497
 Enegry[8,3]: 1e+06 x[8,3] - f[3] + f[8] <= 980707.9292131815
 Enegry[8,4]: 1e+06 x[8,4] - f[4] + f[8] <= 916109.3078268911
 Enegry[8,5]: 1e+06 x[8,5] - f[5] + f[8] <= 933803.552623668
 Enegry[8,6]: 1e+06 x[8,6] - f[6] + f[8] <= 933401.1417045915
 Enegry[8,7]: 1e+06 x[8,7] - f[7] + f[8] <= 974983.1084219556
 Enegry[8,9]: 1e+06 x[8,9] + f[8] - f[9] <= 938695.237296313
 Enegry[9,1]: 1e+06 x[9,1] - f[1] + f[9] <= 919679.6752764937
 Enegry[9,2]: 1e+06 x[9,2] - f[2] + f[9] <= 959689.3692079111
 Enegry[9,3]: 1e+06 x[9,3] - f[3] + f[9] <= 946293.3189773523
 Enegry[9,4]: 1e+06 x[9,4] - f[4] + f[9] <= 976821.8958673908
 Enegry[9,5]: 1e+06 x[9,5] - f[5] + f[9] <= 995097.8098394639
 Enegry[9,6]: 1e+06 x[9,6] - f[6] + f[9] <= 994186.5768096282
 Enegry[9,7]: 1e+06 x[9,7] - f[7] + f[9] <= 914826.4015673113
 Enegry[9,8]: 1e+06 x[9,8] - f[8] + f[9] <= 938695.237296313
 R479: 1e+06 x[1,0] + f[1] - z[1] <= 958861.4323340609
 R480: 1e+06 x[2,0] + f[2] - z[2] <= 974040.7890587109
 R481: 1e+06 x[3,0] + f[3] - z[3] <= 975975.7751046797
 R482: 1e+06 x[4,0] + f[4] - z[4] <= 916378.702596972
 R483: 1e+06 x[5,0] + f[5] - z[5] <= 933662.255142728
 R484: 1e+06 x[6,0] + f[6] - z[6] <= 933032.1117382953
 R485: 1e+06 x[7,0] + f[7] - z[7] <= 976289.1594742812
 R486: 1e+06 x[8,0] + f[8] - z[8] <= 994605.3662967533
 R487: 1e+06 x[9,0] + f[9] - z[9] <= 938509.3679097405
 R488: - 1e+06 x[1,0] + z[1] <= 0
 R489: - 1e+06 x[2,0] + z[2] <= 0
 R490: - 1e+06 x[3,0] + z[3] <= 0
 R491: - 1e+06 x[4,0] + z[4] <= 0
 R492: - 1e+06 x[5,0] + z[5] <= 0
 R493: - 1e+06 x[6,0] + z[6] <= 0
 R494: - 1e+06 x[7,0] + z[7] <= 0
 R495: - 1e+06 x[8,0] + z[8] <= 0
 R496: - 1e+06 x[9,0] + z[9] <= 0
Bounds
Binaries
 x[0,1] x[0,2] x[0,3] x[0,4] x[0,5] x[0,6] x[0,7] x[0,8] x[0,9] x[1,0]
 x[1,2] x[1,3] x[1,4] x[1,5] x[1,6] x[1,7] x[1,8] x[1,9] x[2,0] x[2,1]
 x[2,3] x[2,4] x[2,5] x[2,6] x[2,7] x[2,8] x[2,9] x[3,0] x[3,1] x[3,2]
 x[3,4] x[3,5] x[3,6] x[3,7] x[3,8] x[3,9] x[4,0] x[4,1] x[4,2] x[4,3]
 x[4,5] x[4,6] x[4,7] x[4,8] x[4,9] x[5,0] x[5,1] x[5,2] x[5,3] x[5,4]
 x[5,6] x[5,7] x[5,8] x[5,9] x[6,0] x[6,1] x[6,2] x[6,3] x[6,4] x[6,5]
 x[6,7] x[6,8] x[6,9] x[7,0] x[7,1] x[7,2] x[7,3] x[7,4] x[7,5] x[7,6]
 x[7,8] x[7,9] x[8,0] x[8,1] x[8,2] x[8,3] x[8,4] x[8,5] x[8,6] x[8,7]
 x[8,9] x[9,0] x[9,1] x[9,2] x[9,3] x[9,4] x[9,5] x[9,6] x[9,7] x[9,8]
 sigma[1,1] sigma[1,2] sigma[1,3] sigma[1,4] sigma[1,5] sigma[1,6]
 sigma[1,7] sigma[1,8] sigma[1,9] sigma[2,1] sigma[2,2] sigma[2,3]
 sigma[2,4] sigma[2,5] sigma[2,6] sigma[2,7] sigma[2,8] sigma[2,9]
 sigma[3,1] sigma[3,2] sigma[3,3] sigma[3,4] sigma[3,5] sigma[3,6]
 sigma[3,7] sigma[3,8] sigma[3,9] sigma[4,1] sigma[4,2] sigma[4,3]
 sigma[4,4] sigma[4,5] sigma[4,6] sigma[4,7] sigma[4,8] sigma[4,9]
 sigma[5,1] sigma[5,2] sigma[5,3] sigma[5,4] sigma[5,5] sigma[5,6]
 sigma[5,7] sigma[5,8] sigma[5,9] sigma[6,1] sigma[6,2] sigma[6,3]
 sigma[6,4] sigma[6,5] sigma[6,6] sigma[6,7] sigma[6,8] sigma[6,9]
 sigma[7,1] sigma[7,2] sigma[7,3] sigma[7,4] sigma[7,5] sigma[7,6]
 sigma[7,7] sigma[7,8] sigma[7,9] sigma[8,1] sigma[8,2] sigma[8,3]
 sigma[8,4] sigma[8,5] sigma[8,6] sigma[8,7] sigma[8,8] sigma[8,9]
 sigma[9,1] sigma[9,2] sigma[9,3] sigma[9,4] sigma[9,5] sigma[9,6]
 sigma[9,7] sigma[9,8] sigma[9,9]
End
